; benchmark generated from python API
(set-info :status unknown)
(declare-fun syscall_stub_newfstatat_83_64 () (_ BitVec 64))
(declare-fun mem_c0000f45_79_992 () (_ BitVec 992))
(declare-fun mem_c0001010_98_32 () (_ BitVec 32))
(declare-fun mem_ffffffc07f800000_120_8 () (_ BitVec 8))
(declare-fun mem_ffffffc07f800001_336_128 () (_ BitVec 128))
(assert
 (let ((?x47 ((_ extract 31 0) syscall_stub_newfstatat_83_64)))
 (let (($x52 (bvule ?x47 (_ bv4294963200 32))))
 (not $x52))))
(assert
 (let ((?x3699 ((_ extract 891 891) mem_c0000f45_79_992)))
 (let (($x4297 (= (_ bv0 1) ?x3699)))
 (not $x4297))))
(assert
 (let ((?x2189 ((_ extract 900 900) mem_c0000f45_79_992)))
 (= (_ bv0 1) ?x2189)))
(assert
 (let ((?x644 ((_ extract 647 640) mem_c0000f45_79_992)))
 (let ((?x3676 ((_ extract 639 632) mem_c0000f45_79_992)))
 (let ((?x4549 ((_ extract 631 624) mem_c0000f45_79_992)))
 (let ((?x636 ((_ extract 623 616) mem_c0000f45_79_992)))
 (let ((?x672 ((_ extract 615 608) mem_c0000f45_79_992)))
 (let ((?x784 ((_ extract 607 600) mem_c0000f45_79_992)))
 (let ((?x18745 (concat (concat ((_ extract 591 584) mem_c0000f45_79_992) ((_ extract 599 592) mem_c0000f45_79_992)) ?x784)))
 (let ((?x23636 (concat (concat (concat (concat (concat ?x18745 ?x672) ?x636) ?x4549) ?x3676) ?x644)))
 (bvule (_ bv18446743800970739712 64) ?x23636))))))))))
(assert
 (let ((?x8705 ((_ extract 888 888) mem_c0000f45_79_992)))
 (= (_ bv0 1) ?x8705)))
(assert
 (let ((?x2427 ((_ extract 775 768) mem_c0000f45_79_992)))
 (let ((?x2419 ((_ extract 767 760) mem_c0000f45_79_992)))
 (let ((?x2429 ((_ extract 759 752) mem_c0000f45_79_992)))
 (let ((?x2417 ((_ extract 751 744) mem_c0000f45_79_992)))
 (let ((?x2410 ((_ extract 743 736) mem_c0000f45_79_992)))
 (let ((?x2411 ((_ extract 735 728) mem_c0000f45_79_992)))
 (let ((?x4124 (concat (concat ((_ extract 719 712) mem_c0000f45_79_992) ((_ extract 727 720) mem_c0000f45_79_992)) ?x2411)))
 (let ((?x4642 (concat ?x4124 ?x2410)))
 (let ((?x3823 (concat (concat (concat (concat ?x4642 ?x2417) ?x2429) ?x2419) ?x2427)))
 (let (($x41745 (bvule ?x3823 (_ bv18446743800970739712 64))))
 (not $x41745))))))))))))
(assert
 (let ((?x3977 ((_ extract 583 576) mem_c0000f45_79_992)))
 (= (_ bv0 8) ?x3977)))
(assert
 (let ((?x935 ((_ extract 575 568) mem_c0000f45_79_992)))
 (= (_ bv0 8) ?x935)))
(assert
 (let ((?x4611 ((_ extract 567 560) mem_c0000f45_79_992)))
 (= (_ bv128 8) ?x4611)))
(assert
 (let ((?x3400 ((_ extract 559 552) mem_c0000f45_79_992)))
 (= (_ bv127 8) ?x3400)))
(assert
 (let ((?x3784 ((_ extract 551 544) mem_c0000f45_79_992)))
 (= (_ bv192 8) ?x3784)))
(assert
 (let ((?x3913 ((_ extract 543 536) mem_c0000f45_79_992)))
 (= (_ bv255 8) ?x3913)))
(assert
 (let ((?x4737 ((_ extract 535 528) mem_c0000f45_79_992)))
 (= (_ bv255 8) ?x4737)))
(assert
 (let ((?x4639 ((_ extract 527 520) mem_c0000f45_79_992)))
 (= (_ bv255 8) ?x4639)))
(assert
 (let ((?x2357 ((_ extract 815 808) mem_c0000f45_79_992)))
 (let ((?x2417 ((_ extract 751 744) mem_c0000f45_79_992)))
 (let (($x1690 (= ?x2417 ?x2357)))
 (let (($x3670 (not $x1690)))
 (let ((?x2362 ((_ extract 807 800) mem_c0000f45_79_992)))
 (let ((?x2410 ((_ extract 743 736) mem_c0000f45_79_992)))
 (let (($x1703 (= ?x2410 ?x2362)))
 (let (($x3664 (not $x1703)))
 (let ((?x2345 ((_ extract 783 776) mem_c0000f45_79_992)))
 (let ((?x2400 ((_ extract 719 712) mem_c0000f45_79_992)))
 (let (($x1701 (= ?x2400 ?x2345)))
 (let (($x3671 (not $x1701)))
 (let ((?x2363 ((_ extract 799 792) mem_c0000f45_79_992)))
 (let ((?x2411 ((_ extract 735 728) mem_c0000f45_79_992)))
 (let (($x1704 (= ?x2411 ?x2363)))
 (let (($x3672 (not $x1704)))
 (let ((?x2346 ((_ extract 791 784) mem_c0000f45_79_992)))
 (let ((?x2401 ((_ extract 727 720) mem_c0000f45_79_992)))
 (let (($x1693 (= ?x2401 ?x2346)))
 (let (($x4136 (not $x1693)))
 (let ((?x2364 ((_ extract 831 824) mem_c0000f45_79_992)))
 (let ((?x2419 ((_ extract 767 760) mem_c0000f45_79_992)))
 (let (($x1155 (= ?x2419 ?x2364)))
 (let (($x4137 (not $x1155)))
 (let ((?x2374 ((_ extract 839 832) mem_c0000f45_79_992)))
 (let ((?x2427 ((_ extract 775 768) mem_c0000f45_79_992)))
 (let (($x1152 (= ?x2427 ?x2374)))
 (let (($x4139 (not $x1152)))
 (let ((?x2349 ((_ extract 823 816) mem_c0000f45_79_992)))
 (let ((?x2429 ((_ extract 759 752) mem_c0000f45_79_992)))
 (let (($x1714 (= ?x2429 ?x2349)))
 (let (($x4539 (not $x1714)))
 (let (($x6038 (or $x4539 $x4139 $x4137 $x4136 $x3672 $x3671 $x3664 $x3670)))
 (let (($x9215 (not $x6038)))
 (let ((?x4533 (concat (concat (concat (concat (concat ?x2345 ?x2346) ?x2363) ?x2362) ?x2357) ?x2349)))
 (let ((?x4215 (concat ?x4533 ?x2364)))
 (let ((?x3812 (concat ?x4215 ?x2374)))
 (let ((?x3646 (bvmul (_ bv18446744073709551615 64) ?x3812)))
 (let ((?x3809 (concat (concat (concat (concat (concat ?x2400 ?x2401) ?x2411) ?x2410) ?x2417) ?x2429)))
 (let ((?x3823 (concat (concat ?x3809 ?x2419) ?x2427)))
 (let ((?x3827 (bvadd ?x3823 ?x3646)))
 (let ((?x2482 ((_ extract 63 63) ?x3827)))
 (let (($x2285 (= (_ bv1 1) ?x2482)))
 (or $x2285 $x9215)))))))))))))))))))))))))))))))))))))))))))))
(assert
 (let ((?x2400 ((_ extract 719 712) mem_c0000f45_79_992)))
 (let (($x17560 (= (_ bv255 8) ?x2400)))
 (let (($x17562 (not $x17560)))
 (let ((?x2410 ((_ extract 743 736) mem_c0000f45_79_992)))
 (let (($x10065 (= (_ bv192 8) ?x2410)))
 (let (($x10063 (not $x10065)))
 (let ((?x2411 ((_ extract 735 728) mem_c0000f45_79_992)))
 (let (($x17604 (= (_ bv255 8) ?x2411)))
 (let (($x17721 (not $x17604)))
 (let ((?x2401 ((_ extract 727 720) mem_c0000f45_79_992)))
 (let (($x17731 (= (_ bv255 8) ?x2401)))
 (let (($x17664 (not $x17731)))
 (let ((?x2419 ((_ extract 767 760) mem_c0000f45_79_992)))
 (let (($x10069 (= (_ bv0 8) ?x2419)))
 (let (($x10067 (not $x10069)))
 (let ((?x2427 ((_ extract 775 768) mem_c0000f45_79_992)))
 (let (($x99771 (= (_ bv1 8) ?x2427)))
 (let (($x99778 (not $x99771)))
 (let ((?x2429 ((_ extract 759 752) mem_c0000f45_79_992)))
 (let (($x313146 (= (_ bv128 8) ?x2429)))
 (let (($x314025 (not $x313146)))
 (let ((?x2417 ((_ extract 751 744) mem_c0000f45_79_992)))
 (let (($x306718 (= (_ bv127 8) ?x2417)))
 (let (($x314244 (not $x306718)))
 (or $x314244 $x314025 $x99778 $x10067 $x17664 $x17721 $x10063 $x17562))))))))))))))))))))))))))
(assert
 (= (_ bv4294967295 32) mem_c0001010_98_32))
(assert
 (let (($x41769 (= (_ bv10 8) mem_ffffffc07f800000_120_8)))
 (not $x41769)))
(assert
 (let ((?x3977 ((_ extract 583 576) mem_c0000f45_79_992)))
 (let ((?x935 ((_ extract 575 568) mem_c0000f45_79_992)))
 (let ((?x4611 ((_ extract 567 560) mem_c0000f45_79_992)))
 (let ((?x3400 ((_ extract 559 552) mem_c0000f45_79_992)))
 (let ((?x3784 ((_ extract 551 544) mem_c0000f45_79_992)))
 (let ((?x3913 ((_ extract 543 536) mem_c0000f45_79_992)))
 (let ((?x12701 (concat (concat ((_ extract 527 520) mem_c0000f45_79_992) ((_ extract 535 528) mem_c0000f45_79_992)) ?x3913)))
 (let ((?x13258 (concat ?x12701 ?x3784)))
 (let ((?x13066 (concat (concat (concat (concat ?x13258 ?x3400) ?x4611) ?x935) ?x3977)))
 (let ((?x57164 (bvadd (_ bv1 64) ?x13066)))
 (= (_ bv18446743800970739713 64) ?x57164))))))))))))
(assert
 (let ((?x593407 ((_ extract 7 0) mem_ffffffc07f800001_336_128)))
 (let (($x602124 (= (_ bv10 8) ?x593407)))
 (let ((?x604200 (ite $x602124 (_ bv1 1) (_ bv0 1))))
 (let ((?x601573 ((_ extract 15 8) mem_ffffffc07f800001_336_128)))
 (let (($x605381 (= (_ bv10 8) ?x601573)))
 (let ((?x596811 (ite $x605381 (_ bv1 1) (_ bv0 1))))
 (let ((?x603697 ((_ extract 23 16) mem_ffffffc07f800001_336_128)))
 (let (($x604028 (= (_ bv10 8) ?x603697)))
 (let ((?x605253 (ite $x604028 (_ bv1 1) (_ bv0 1))))
 (let ((?x603432 ((_ extract 31 24) mem_ffffffc07f800001_336_128)))
 (let (($x603640 (= (_ bv10 8) ?x603432)))
 (let ((?x590656 (ite $x603640 (_ bv1 1) (_ bv0 1))))
 (let ((?x604579 ((_ extract 39 32) mem_ffffffc07f800001_336_128)))
 (let (($x604572 (= (_ bv10 8) ?x604579)))
 (let ((?x593657 (ite $x604572 (_ bv1 1) (_ bv0 1))))
 (let ((?x604580 ((_ extract 47 40) mem_ffffffc07f800001_336_128)))
 (let (($x602742 (= (_ bv10 8) ?x604580)))
 (let ((?x597467 (ite $x602742 (_ bv1 1) (_ bv0 1))))
 (let ((?x604691 ((_ extract 55 48) mem_ffffffc07f800001_336_128)))
 (let (($x605216 (= (_ bv10 8) ?x604691)))
 (let ((?x591610 (ite $x605216 (_ bv1 1) (_ bv0 1))))
 (let ((?x606511 ((_ extract 63 56) mem_ffffffc07f800001_336_128)))
 (let (($x601496 (= (_ bv10 8) ?x606511)))
 (let ((?x59055 (ite $x601496 (_ bv1 1) (_ bv0 1))))
 (let ((?x605508 ((_ extract 71 64) mem_ffffffc07f800001_336_128)))
 (let (($x601650 (= (_ bv10 8) ?x605508)))
 (let ((?x314608 (ite $x601650 (_ bv1 1) (_ bv0 1))))
 (let ((?x606835 ((_ extract 79 72) mem_ffffffc07f800001_336_128)))
 (let (($x590621 (= (_ bv10 8) ?x606835)))
 (let ((?x314477 (ite $x590621 (_ bv1 1) (_ bv0 1))))
 (let ((?x605365 ((_ extract 87 80) mem_ffffffc07f800001_336_128)))
 (let (($x600660 (= (_ bv10 8) ?x605365)))
 (let ((?x315066 (ite $x600660 (_ bv1 1) (_ bv0 1))))
 (let ((?x594102 ((_ extract 95 88) mem_ffffffc07f800001_336_128)))
 (let (($x595336 (= (_ bv10 8) ?x594102)))
 (let ((?x314751 (ite $x595336 (_ bv1 1) (_ bv0 1))))
 (let ((?x604952 ((_ extract 103 96) mem_ffffffc07f800001_336_128)))
 (let (($x604792 (= (_ bv10 8) ?x604952)))
 (let ((?x313986 (ite $x604792 (_ bv1 1) (_ bv0 1))))
 (let ((?x605355 ((_ extract 111 104) mem_ffffffc07f800001_336_128)))
 (let (($x602911 (= (_ bv10 8) ?x605355)))
 (let ((?x312464 (ite $x602911 (_ bv1 1) (_ bv0 1))))
 (let ((?x603333 ((_ extract 119 112) mem_ffffffc07f800001_336_128)))
 (let (($x604883 (= (_ bv10 8) ?x603333)))
 (let ((?x315511 (ite $x604883 (_ bv1 1) (_ bv0 1))))
 (let ((?x312680 ((_ extract 127 120) mem_ffffffc07f800001_336_128)))
 (let (($x605421 (= (_ bv10 8) ?x312680)))
 (let ((?x315352 (ite $x605421 (_ bv1 1) (_ bv0 1))))
 (let ((?x597152 (concat (concat (concat (concat (concat ?x315352 ?x315511) ?x312464) ?x313986) ?x314751) ?x315066)))
 (let ((?x604656 (concat (concat (concat (concat (concat ?x597152 ?x314477) ?x314608) ?x59055) ?x591610) ?x597467)))
 (let ((?x602956 (concat (concat (concat (concat (concat ?x604656 ?x593657) ?x590656) ?x605253) ?x596811) ?x604200)))
 (and (distinct (_ bv0 16) ?x602956) true)))))))))))))))))))))))))))))))))))))))))))))))))))))
(assert
 (let ((?x593407 ((_ extract 7 0) mem_ffffffc07f800001_336_128)))
 (let (($x602124 (= (_ bv10 8) ?x593407)))
 (let ((?x604200 (ite $x602124 (_ bv1 1) (_ bv0 1))))
 (let ((?x601573 ((_ extract 15 8) mem_ffffffc07f800001_336_128)))
 (let (($x605381 (= (_ bv10 8) ?x601573)))
 (let ((?x596811 (ite $x605381 (_ bv1 1) (_ bv0 1))))
 (let ((?x603697 ((_ extract 23 16) mem_ffffffc07f800001_336_128)))
 (let (($x604028 (= (_ bv10 8) ?x603697)))
 (let ((?x605253 (ite $x604028 (_ bv1 1) (_ bv0 1))))
 (let ((?x603432 ((_ extract 31 24) mem_ffffffc07f800001_336_128)))
 (let (($x603640 (= (_ bv10 8) ?x603432)))
 (let ((?x590656 (ite $x603640 (_ bv1 1) (_ bv0 1))))
 (let ((?x604579 ((_ extract 39 32) mem_ffffffc07f800001_336_128)))
 (let (($x604572 (= (_ bv10 8) ?x604579)))
 (let ((?x593657 (ite $x604572 (_ bv1 1) (_ bv0 1))))
 (let ((?x604580 ((_ extract 47 40) mem_ffffffc07f800001_336_128)))
 (let (($x602742 (= (_ bv10 8) ?x604580)))
 (let ((?x597467 (ite $x602742 (_ bv1 1) (_ bv0 1))))
 (let ((?x604691 ((_ extract 55 48) mem_ffffffc07f800001_336_128)))
 (let (($x605216 (= (_ bv10 8) ?x604691)))
 (let ((?x591610 (ite $x605216 (_ bv1 1) (_ bv0 1))))
 (let ((?x606511 ((_ extract 63 56) mem_ffffffc07f800001_336_128)))
 (let (($x601496 (= (_ bv10 8) ?x606511)))
 (let ((?x59055 (ite $x601496 (_ bv1 1) (_ bv0 1))))
 (let ((?x605508 ((_ extract 71 64) mem_ffffffc07f800001_336_128)))
 (let (($x601650 (= (_ bv10 8) ?x605508)))
 (let ((?x314608 (ite $x601650 (_ bv1 1) (_ bv0 1))))
 (let ((?x606835 ((_ extract 79 72) mem_ffffffc07f800001_336_128)))
 (let (($x590621 (= (_ bv10 8) ?x606835)))
 (let ((?x314477 (ite $x590621 (_ bv1 1) (_ bv0 1))))
 (let ((?x605365 ((_ extract 87 80) mem_ffffffc07f800001_336_128)))
 (let (($x600660 (= (_ bv10 8) ?x605365)))
 (let ((?x315066 (ite $x600660 (_ bv1 1) (_ bv0 1))))
 (let ((?x594102 ((_ extract 95 88) mem_ffffffc07f800001_336_128)))
 (let (($x595336 (= (_ bv10 8) ?x594102)))
 (let ((?x314751 (ite $x595336 (_ bv1 1) (_ bv0 1))))
 (let ((?x604952 ((_ extract 103 96) mem_ffffffc07f800001_336_128)))
 (let (($x604792 (= (_ bv10 8) ?x604952)))
 (let ((?x313986 (ite $x604792 (_ bv1 1) (_ bv0 1))))
 (let ((?x605355 ((_ extract 111 104) mem_ffffffc07f800001_336_128)))
 (let (($x602911 (= (_ bv10 8) ?x605355)))
 (let ((?x312464 (ite $x602911 (_ bv1 1) (_ bv0 1))))
 (let ((?x603333 ((_ extract 119 112) mem_ffffffc07f800001_336_128)))
 (let (($x604883 (= (_ bv10 8) ?x603333)))
 (let ((?x315511 (ite $x604883 (_ bv1 1) (_ bv0 1))))
 (let ((?x312680 ((_ extract 127 120) mem_ffffffc07f800001_336_128)))
 (let (($x605421 (= (_ bv10 8) ?x312680)))
 (let ((?x315352 (ite $x605421 (_ bv1 1) (_ bv0 1))))
 (let ((?x1114226 (concat (concat (concat (concat (concat (_ bv0 16) ?x315352) ?x315511) ?x312464) ?x313986) ?x314751)))
 (let ((?x1155773 (concat (concat (concat (concat (concat ?x1114226 ?x315066) ?x314477) ?x314608) ?x59055) ?x591610)))
 (let ((?x1112684 (concat (concat (concat (concat (concat ?x1155773 ?x597467) ?x593657) ?x590656) ?x605253) ?x596811)))
 (let ((?x1117874 (concat ?x1112684 ?x604200)))
 (let ((?x1119733 ((_ zero_extend 32) ?x1117874)))
 (let ((?x1121024 (ite $x605421 (_ bv15 64) (_ bv64 64))))
 (let ((?x1157963 (ite $x604883 (_ bv14 64) ?x1121024)))
 (let ((?x1122171 (ite $x602911 (_ bv13 64) ?x1157963)))
 (let ((?x1115596 (ite $x604792 (_ bv12 64) ?x1122171)))
 (let ((?x1116855 (ite $x595336 (_ bv11 64) ?x1115596)))
 (let ((?x1120559 (ite $x600660 (_ bv10 64) ?x1116855)))
 (let ((?x1121117 (ite $x590621 (_ bv9 64) ?x1120559)))
 (let ((?x1155782 (ite $x601650 (_ bv8 64) ?x1121117)))
 (let ((?x1155770 (ite $x601496 (_ bv7 64) ?x1155782)))
 (let ((?x1117167 (ite $x605216 (_ bv6 64) ?x1155770)))
 (let ((?x1117073 (ite $x602742 (_ bv5 64) ?x1117167)))
 (let ((?x1122531 (ite $x604572 (_ bv4 64) ?x1117073)))
 (let ((?x1115801 (ite $x603640 (_ bv3 64) ?x1122531)))
 (let ((?x1120329 (ite $x604028 (_ bv2 64) ?x1115801)))
 (let ((?x1115644 (ite $x605381 (_ bv1 64) ?x1120329)))
 (let ((?x1158581 (ite $x602124 (_ bv0 64) ?x1115644)))
 (let (($x1158594 (and (distinct (_ bv0 32) ?x1117874) true)))
 (let ((?x1110501 (ite $x1158594 ?x1158581 ?x1119733)))
 (let ((?x1114369 ((_ extract 31 0) ?x1110501)))
 (let ((?x1112423 ((_ zero_extend 32) ?x1114369)))
 (let ((?x3977 ((_ extract 583 576) mem_c0000f45_79_992)))
 (let ((?x935 ((_ extract 575 568) mem_c0000f45_79_992)))
 (let ((?x4611 ((_ extract 567 560) mem_c0000f45_79_992)))
 (let ((?x3400 ((_ extract 559 552) mem_c0000f45_79_992)))
 (let ((?x3784 ((_ extract 551 544) mem_c0000f45_79_992)))
 (let ((?x3913 ((_ extract 543 536) mem_c0000f45_79_992)))
 (let ((?x12701 (concat (concat ((_ extract 527 520) mem_c0000f45_79_992) ((_ extract 535 528) mem_c0000f45_79_992)) ?x3913)))
 (let ((?x13258 (concat ?x12701 ?x3784)))
 (let ((?x13066 (concat (concat (concat (concat ?x13258 ?x3400) ?x4611) ?x935) ?x3977)))
 (let ((?x84029 (bvmul (_ bv18446744073709551615 64) ?x13066)))
 (let ((?x2427 ((_ extract 775 768) mem_c0000f45_79_992)))
 (let ((?x2419 ((_ extract 767 760) mem_c0000f45_79_992)))
 (let ((?x2429 ((_ extract 759 752) mem_c0000f45_79_992)))
 (let ((?x2417 ((_ extract 751 744) mem_c0000f45_79_992)))
 (let ((?x2410 ((_ extract 743 736) mem_c0000f45_79_992)))
 (let ((?x2411 ((_ extract 735 728) mem_c0000f45_79_992)))
 (let ((?x4124 (concat (concat ((_ extract 719 712) mem_c0000f45_79_992) ((_ extract 727 720) mem_c0000f45_79_992)) ?x2411)))
 (let ((?x4642 (concat ?x4124 ?x2410)))
 (let ((?x3823 (concat (concat (concat (concat ?x4642 ?x2417) ?x2429) ?x2419) ?x2427)))
 (let ((?x28836 (bvadd (_ bv18446744073709551615 64) ?x3823)))
 (let ((?x31280 (bvadd ?x28836 ?x84029)))
 (let ((?x29628 ((_ extract 568 568) mem_c0000f45_79_992)))
 (let ((?x30499 (concat ?x29628 ?x3977)))
 (let ((?x28310 (bvmul (_ bv511 9) ?x30499)))
 (let ((?x4203 ((_ extract 760 760) mem_c0000f45_79_992)))
 (let ((?x3607 (concat ?x4203 ?x2427)))
 (let ((?x49860 (bvadd (_ bv511 9) ?x3607)))
 (let ((?x196520 (bvadd ?x49860 ?x28310)))
 (let (($x196710 (bvule ?x196520 (_ bv398 9))))
 (let ((?x195923 ((_ extract 63 9) ?x31280)))
 (let (($x196315 (= (_ bv0 55) ?x195923)))
 (let (($x196093 (and $x196315 $x196710)))
 (let ((?x194439 (ite $x196093 ?x31280 (_ bv398 64))))
 (bvugt ?x194439 ?x1112423))))))))))))))))))))))))))))))))))))))))))))))))))))))))))))))))))))))))))))))))))))))))))))))))))))))))))))
(assert
 (let ((?x3977 ((_ extract 583 576) mem_c0000f45_79_992)))
 (let ((?x935 ((_ extract 575 568) mem_c0000f45_79_992)))
 (let ((?x4611 ((_ extract 567 560) mem_c0000f45_79_992)))
 (let ((?x3400 ((_ extract 559 552) mem_c0000f45_79_992)))
 (let ((?x3784 ((_ extract 551 544) mem_c0000f45_79_992)))
 (let ((?x3913 ((_ extract 543 536) mem_c0000f45_79_992)))
 (let ((?x12701 (concat (concat ((_ extract 527 520) mem_c0000f45_79_992) ((_ extract 535 528) mem_c0000f45_79_992)) ?x3913)))
 (let ((?x13258 (concat ?x12701 ?x3784)))
 (let ((?x13066 (concat (concat (concat (concat ?x13258 ?x3400) ?x4611) ?x935) ?x3977)))
 (let ((?x312680 ((_ extract 127 120) mem_ffffffc07f800001_336_128)))
 (let (($x605421 (= (_ bv10 8) ?x312680)))
 (let ((?x1801100 (ite $x605421 (_ bv15 32) (_ bv64 32))))
 (let ((?x603333 ((_ extract 119 112) mem_ffffffc07f800001_336_128)))
 (let (($x604883 (= (_ bv10 8) ?x603333)))
 (let ((?x1803300 (ite $x604883 (_ bv14 32) ?x1801100)))
 (let ((?x605355 ((_ extract 111 104) mem_ffffffc07f800001_336_128)))
 (let (($x602911 (= (_ bv10 8) ?x605355)))
 (let ((?x1803110 (ite $x602911 (_ bv13 32) ?x1803300)))
 (let ((?x604952 ((_ extract 103 96) mem_ffffffc07f800001_336_128)))
 (let (($x604792 (= (_ bv10 8) ?x604952)))
 (let ((?x1801813 (ite $x604792 (_ bv12 32) ?x1803110)))
 (let ((?x594102 ((_ extract 95 88) mem_ffffffc07f800001_336_128)))
 (let (($x595336 (= (_ bv10 8) ?x594102)))
 (let ((?x1803086 (ite $x595336 (_ bv11 32) ?x1801813)))
 (let ((?x605365 ((_ extract 87 80) mem_ffffffc07f800001_336_128)))
 (let (($x600660 (= (_ bv10 8) ?x605365)))
 (let ((?x1803117 (ite $x600660 (_ bv10 32) ?x1803086)))
 (let ((?x606835 ((_ extract 79 72) mem_ffffffc07f800001_336_128)))
 (let (($x590621 (= (_ bv10 8) ?x606835)))
 (let ((?x1802260 (ite $x590621 (_ bv9 32) ?x1803117)))
 (let ((?x605508 ((_ extract 71 64) mem_ffffffc07f800001_336_128)))
 (let (($x601650 (= (_ bv10 8) ?x605508)))
 (let ((?x1801938 (ite $x601650 (_ bv8 32) ?x1802260)))
 (let ((?x606511 ((_ extract 63 56) mem_ffffffc07f800001_336_128)))
 (let (($x601496 (= (_ bv10 8) ?x606511)))
 (let ((?x1802403 (ite $x601496 (_ bv7 32) ?x1801938)))
 (let ((?x604691 ((_ extract 55 48) mem_ffffffc07f800001_336_128)))
 (let (($x605216 (= (_ bv10 8) ?x604691)))
 (let ((?x1803380 (ite $x605216 (_ bv6 32) ?x1802403)))
 (let ((?x604580 ((_ extract 47 40) mem_ffffffc07f800001_336_128)))
 (let (($x602742 (= (_ bv10 8) ?x604580)))
 (let ((?x1801843 (ite $x602742 (_ bv5 32) ?x1803380)))
 (let ((?x604579 ((_ extract 39 32) mem_ffffffc07f800001_336_128)))
 (let (($x604572 (= (_ bv10 8) ?x604579)))
 (let ((?x1802748 (ite $x604572 (_ bv4 32) ?x1801843)))
 (let ((?x603432 ((_ extract 31 24) mem_ffffffc07f800001_336_128)))
 (let (($x603640 (= (_ bv10 8) ?x603432)))
 (let ((?x1802885 (ite $x603640 (_ bv3 32) ?x1802748)))
 (let ((?x603697 ((_ extract 23 16) mem_ffffffc07f800001_336_128)))
 (let (($x604028 (= (_ bv10 8) ?x603697)))
 (let ((?x1802029 (ite $x604028 (_ bv2 32) ?x1802885)))
 (let ((?x601573 ((_ extract 15 8) mem_ffffffc07f800001_336_128)))
 (let (($x605381 (= (_ bv10 8) ?x601573)))
 (let ((?x1802721 (ite $x605381 (_ bv1 32) ?x1802029)))
 (let ((?x593407 ((_ extract 7 0) mem_ffffffc07f800001_336_128)))
 (let (($x602124 (= (_ bv10 8) ?x593407)))
 (let ((?x1802534 (ite $x602124 (_ bv0 32) ?x1802721)))
 (let ((?x604200 (ite $x602124 (_ bv1 1) (_ bv0 1))))
 (let ((?x596811 (ite $x605381 (_ bv1 1) (_ bv0 1))))
 (let ((?x605253 (ite $x604028 (_ bv1 1) (_ bv0 1))))
 (let ((?x590656 (ite $x603640 (_ bv1 1) (_ bv0 1))))
 (let ((?x593657 (ite $x604572 (_ bv1 1) (_ bv0 1))))
 (let ((?x597467 (ite $x602742 (_ bv1 1) (_ bv0 1))))
 (let ((?x591610 (ite $x605216 (_ bv1 1) (_ bv0 1))))
 (let ((?x59055 (ite $x601496 (_ bv1 1) (_ bv0 1))))
 (let ((?x314608 (ite $x601650 (_ bv1 1) (_ bv0 1))))
 (let ((?x314477 (ite $x590621 (_ bv1 1) (_ bv0 1))))
 (let ((?x315066 (ite $x600660 (_ bv1 1) (_ bv0 1))))
 (let ((?x314751 (ite $x595336 (_ bv1 1) (_ bv0 1))))
 (let ((?x313986 (ite $x604792 (_ bv1 1) (_ bv0 1))))
 (let ((?x312464 (ite $x602911 (_ bv1 1) (_ bv0 1))))
 (let ((?x1119694 (concat (concat (concat (_ bv0 16) (ite $x605421 (_ bv1 1) (_ bv0 1))) (ite $x604883 (_ bv1 1) (_ bv0 1))) ?x312464)))
 (let ((?x1122224 (concat (concat (concat (concat (concat ?x1119694 ?x313986) ?x314751) ?x315066) ?x314477) ?x314608)))
 (let ((?x1122647 (concat (concat (concat (concat (concat ?x1122224 ?x59055) ?x591610) ?x597467) ?x593657) ?x590656)))
 (let ((?x1117874 (concat (concat (concat ?x1122647 ?x605253) ?x596811) ?x604200)))
 (let (($x1801587 (not $x605421)))
 (let (($x1801693 (not $x604883)))
 (let (($x1802440 (not $x602911)))
 (let (($x1802908 (not $x604792)))
 (let (($x1802317 (not $x595336)))
 (let (($x1803258 (not $x600660)))
 (let (($x1802947 (not $x590621)))
 (let (($x1802444 (not $x601650)))
 (let (($x1802955 (not $x601496)))
 (let (($x1803309 (not $x605216)))
 (let (($x1801698 (not $x602742)))
 (let (($x1802448 (not $x604572)))
 (let (($x1801694 (not $x603640)))
 (let (($x1803155 (not $x604028)))
 (let (($x1802550 (not $x605381)))
 (let (($x1802821 (not $x602124)))
 (let (($x1803204 (and $x1802821 $x1802550 $x1803155 $x1801694 $x1802448 $x1801698 $x1803309 $x1802955 $x1802444 $x1802947 $x1803258 $x1802317 $x1802908 $x1802440 $x1801693 $x1801587)))
 (let ((?x1803220 (ite $x1803204 ?x1117874 ?x1802534)))
 (let ((?x1802606 (concat (_ bv0 32) ?x1803220)))
 (let ((?x2515107 (bvadd (bvadd (_ bv1 64) ?x1802606) ?x13066)))
 (and (distinct (_ bv0 64) ?x2515107) true)))))))))))))))))))))))))))))))))))))))))))))))))))))))))))))))))))))))))))))))))))))))))))))))))
(minimize syscall_stub_newfstatat_83_64)
(maximize mem_ffffffc07f800001_336_128)
(maximize syscall_stub_newfstatat_83_64)
(minimize mem_c0001010_98_32)
(maximize mem_c0000f45_79_992)
(maximize mem_ffffffc07f800000_120_8)
(minimize mem_ffffffc07f800000_120_8)
(maximize mem_c0001010_98_32)
(minimize mem_ffffffc07f800001_336_128)
(minimize mem_c0000f45_79_992)
(check-sat)
(get-objectives)
